N = 30;
M = 66;
Edge_Start = [1, 1, 2, 3, 3, 4, 5, 5, 6, 7, 9, 9, 10, 11, 12, 13, 13, 14, 15, 16, 16, 18, 18, 19, 20, 21, 22, 22, 24, 25, 26, 27, 28, 2, 8, 3, 4, 10, 5, 6, 12, 7, 14, 10, 17, 11, 12, 13, 14, 21, 15, 23, 17, 24, 19, 26, 20, 28, 22, 23, 30, 25, 26, 27, 28, 29];
Edge_End = [2, 8, 3, 4, 10, 5, 6, 12, 7, 14, 10, 17, 11, 12, 13, 14, 21, 15, 23, 17, 24, 19, 26, 20, 28, 22, 23, 30, 25, 26, 27, 28, 29, 1, 1, 2, 3, 3, 4, 5, 5, 6, 7, 9, 9, 10, 11, 12, 13, 13, 14, 15, 16, 16, 18, 18, 19, 20, 21, 22, 22, 24, 25, 26, 27, 28];
L = [1, 1, 1, 1, 1, 1, 1, 1, 1, 1, 1, 1, 1, 1, 1, 1, 1, 1, 1, 1, 1, 1, 1, 1, 1, 1, 1, 1, 1, 1, 1, 1, 1, 1, 1, 1, 1, 1, 1, 1, 1, 1, 1, 1, 1, 1, 1, 1, 1, 1, 1, 1, 1, 1, 1, 1, 1, 1, 1, 1, 1, 1, 1, 1, 1, 1];
T = [1, 1, 1, 1, 1, 1, 1, 1, 1, 1, 1, 1, 1, 1, 1, 1, 1, 1, 1, 1, 1, 1, 1, 1, 1, 1, 1, 1, 1, 1, 1, 1, 1, 1, 1, 1, 1, 1, 1, 1, 1, 1, 1, 1, 1, 1, 1, 1, 1, 1, 1, 1, 1, 1, 1, 1, 1, 1, 1, 1, 1, 1, 1, 1, 1, 1];
Lower_Bound = [3, 1, 2, 3, 5, 5, 6, 1, 7, 4, 4, 5, 6, 7, 8, 8, 5, 10, 11, 13, 7, 8, 10, 7, 8, 11, 11, 11, 13, 9];
Upper_Bound = [16, 7, 10, 18, 11, 6, 16, 4, 11, 7, 11, 7, 8, 8, 9, 9, 11, 13, 18, 20, 10, 9, 15, 8, 9, 20, 18, 14, 31, 14];
Start = 1;
End = 30;
Time = 14;
